unsat
(define-fun skel ((n719 Bool) (n721 Bool) (n727 Bool) (n715 Bool) (n708 Bool)) Bool (not (or n708 (or (and n719 (not n721)) (and n727 (not n715))))))
24.21user 0.04system 0:24.26elapsed 99%CPU (0avgtext+0avgdata 69040maxresident)k
0inputs+8outputs (0major+12058minor)pagefaults 0swaps
